500
750
521
519
518
518
518
517
517
516
515
515
514
513
512
512
511
511
511
511
510
509
509
509
509
508
508
507
507
506
505
505
505
505
504
504
504
503
502
502
501
499
492
492
492
491
489
489
487
485
484
484
483
481
480
480
479
479
479
478
477
476
476
475
475
475
475
474
472
472
472
472
470
467
467
466
465
464
464
464
463
459
455
453
453
451
450
449
449
445
444
444
444
443
442
441
441
440
440
439
438
438
436
436
435
435
434
434
434
433
432
432
432
431
430
429
426
424
422
421
415
414
414
413
413
412
412
411
411
409
407
406
406
405
404
403
403
403
403
402
401
400
399
398
396
396
392
391
390
389
388
387
387
385
385
385
385
385
382
380
380
380
379
379
377
376
376
376
376
375
374
374
373
371
370
369
368
368
368
367
366
366
366
365
365
364
358
356
353
352
352
351
349
349
348
347
347
347
347
345
341
341
338
337
335
334
334
332
331
330
330
328
327
326
324
323
322
321
320
319
318
318
317
317
317
315
313
312
311
311
311
308
308
308
308
306
306
305
305
305
304
303
302
300
298
297
297
296
296
294
293
292
291
286
285
284
284
283
282
280
280
279
278
277
277
276
276
275
275
274
274
274
274
273
271
271
271
270
269
265
265
264
264
264
264
263
262
261
260
260
259
258
258
256
256
254
252
251
251
249
248
246
245
245
245
244
244
243
242
239
239
237
234
232
232
229
229
229
229
229
227
224
223
221
221
221
221
220
218
218
217
215
213
212
211
211
211
210
208
208
207
206
206
205
204
204
202
202
201
200
199
198
198
198
198
197
196
195
193
193
192
191
191
190
190
190
188
184
184
181
181
180
180
179
179
177
177
175
174
174
174
174
174
172
171
168
168
168
167
166
166
164
164
164
163
161
160
160
160
159
159
157
156
153
153
152
149
149
148
148
147
144
144
140
139
139
138
136
136
135
133
132
132
131
131
130
129
128
128
127
126
126
125
125
124
124
123
123
123
122
122
121
119
119
117
117
117
117
117
115
113
113
110
110
110
109
107
107
106
106
104
104
102
102
100
99
98
98
98
97
97
97
96
96
96
95
93
93
93
92
91
90
90
90
88
88
87
83
83
83
82
80
79
79
79
79
79
78
77
76
75
75
